job_count = 15 ;
duration = [|21, 12, 9|17, 4, 6|14, 17, 7|12, 7, 4|3, 2, 9|19, 2, 13|18, 3, 6|18, 16, 9|21, 7, 8|3, 18, 14|5, 10, 2|13, 10, 11|6, 7, 11|9, 2, 5|17, 15, 7|] ;
machine_count = 3 ;
cost = [|30, 22, 32|27, 39, 31|22, 34, 41|24, 35, 42|21, 31, 36|28, 30, 43|30, 31, 47|21, 37, 48|23, 39, 38|21, 31, 50|25, 27, 29|26, 30, 52|26, 30, 50|21, 25, 53|28, 29, 30|] ;
deadline = [33, 33, 33, 33, 33, 33, 33, 33, 33, 33, 33, 33, 33, 33, 33] ;
release = [0, 0, 0, 0, 0, 0, 0, 0, 0, 0, 0, 0, 0, 0, 0] ;
resource = [|2, 2, 2|8, 8, 8|9, 9, 9|2, 2, 2|7, 7, 7|6, 6, 6|6, 6, 6|1, 1, 1|4, 4, 4|3, 3, 3|8, 8, 8|5, 5, 5|3, 3, 3|5, 5, 5|6, 6, 6|] ;
capacities = [10, 10, 10] ;
